37125
13 7 17 3 9 8 12 11 6 -1 500 250 50 250 100 100 100 100 50 
7 17 12 6 18 16 19 14 8 15 5 10 20 2 1 4 -1 250 50 100 200 25 25 100 100 100 25 25 25 25 25 25 25 
1
1
6 -1 40 
6 -1 40 
6 -1 40 
6 -1 40 
6 -1 40 
6 -1 40 
6 15 -1 10 25 
